p wcnf 234 573 268
1 -1 0
1 -2 0
1 -3 0
1 -4 0
1 -5 0
1 -6 0
1 -7 0
1 -8 0
1 -9 0
1 -10 0
1 -11 0
1 -12 0
1 -13 0
1 -14 0
1 -15 0
1 -16 0
1 -17 0
1 -18 0
1 -19 0
1 -20 0
1 -21 0
1 -22 0
1 -23 0
1 -24 0
1 -25 0
1 -26 0
1 -27 0
1 -28 0
1 -29 0
1 -30 0
1 -31 0
1 -32 0
1 -33 0
1 -34 0
1 -35 0
1 -36 0
1 -37 0
1 -38 0
1 -39 0
1 -40 0
1 -41 0
1 -42 0
1 -43 0
1 -44 0
1 -45 0
1 -46 0
1 -47 0
1 -48 0
1 -49 0
1 -50 0
1 -51 0
1 -52 0
1 -53 0
1 -54 0
1 -55 0
1 -56 0
1 -57 0
1 -58 0
1 -59 0
1 -60 0
1 -61 0
1 -62 0
1 -63 0
1 -64 0
1 -65 0
1 -66 0
1 -67 0
1 -68 0
1 -69 0
1 -70 0
1 -71 0
1 -72 0
1 -73 0
1 -74 0
1 -75 0
1 -76 0
1 -77 0
1 -78 0
1 -79 0
1 -80 0
1 -81 0
1 -82 0
1 -83 0
1 -84 0
1 -85 0
1 -86 0
1 -87 0
1 -88 0
1 -89 0
1 -90 0
1 -91 0
1 -92 0
1 -93 0
1 -94 0
1 -95 0
1 -96 0
1 -97 0
1 -98 0
1 -99 0
1 -100 0
1 -101 0
1 -102 0
1 -103 0
1 -104 0
1 -105 0
1 -106 0
1 -107 0
1 -108 0
1 -109 0
1 -110 0
1 -111 0
1 -112 0
1 -113 0
1 -114 0
1 -115 0
1 -116 0
1 -117 0
1 -118 0
1 -119 0
1 -120 0
1 -121 0
1 -122 0
1 -123 0
1 -124 0
1 -125 0
1 -126 0
1 -127 0
1 -128 0
1 -129 0
1 -130 0
1 -131 0
1 -132 0
1 -133 0
1 -134 0
1 -135 0
1 -136 0
1 -137 0
1 -138 0
1 -139 0
1 -140 0
1 -141 0
1 -142 0
1 -143 0
1 -144 0
1 -145 0
1 -146 0
1 -147 0
1 -148 0
1 -149 0
1 -150 0
1 -151 0
1 -152 0
1 -153 0
1 -154 0
1 -155 0
1 -156 0
1 -157 0
1 -158 0
1 -159 0
1 -160 0
1 -161 0
1 -162 0
1 -163 0
1 -164 0
1 -165 0
1 -166 0
1 -167 0
1 -168 0
1 -169 0
1 -170 0
1 -171 0
1 -172 0
1 -173 0
1 -174 0
1 -175 0
1 -176 0
1 -177 0
1 -178 0
1 -179 0
1 -180 0
1 -181 0
1 -182 0
1 -183 0
1 -184 0
1 -185 0
1 -186 0
1 -187 0
1 -188 0
1 -189 0
1 -190 0
1 -191 0
1 -192 0
1 -193 0
1 -194 0
1 -195 0
1 -196 0
1 -197 0
1 -198 0
1 -199 0
1 -200 0
1 -201 0
1 -202 0
1 -203 0
1 -204 0
1 -205 0
1 -206 0
1 -207 0
1 -208 0
1 -209 0
1 -210 0
1 -211 0
1 -212 0
1 -213 0
1 -214 0
1 -215 0
1 -216 0
1 -217 0
1 -218 0
1 -219 0
1 -220 0
1 -221 0
1 -222 0
5 -223 0
5 -224 0
5 -225 0
5 -226 0
5 -227 0
5 -228 0
5 -229 0
5 -230 0
5 -231 0
268 223 1 3 4 5 9 10 11 16 17 18 19 23 24 25 26 32 33 34 37 38 39 44 45 46 47 48 53 57 58 59 60 61 62 67 68 69 74 75 76 77 78 79 85 89 90 91 92 93 94 99 100 101 106 107 108 114 115 116 117 118 121 122 123 124 125 131 134 135 136 137 138 143 144 145 150 151 152 153 154 159 160 163 164 165 166 171 172 175 176 179 180 183 184 185 186 191 194 195 196 197 198 203 204 207 208 209 210 215 216 217 218 0
268 224 1 3 4 5 9 14 15 16 17 18 19 23 29 30 31 32 33 36 37 42 43 44 45 46 47 48 53 57 58 59 60 61 66 67 72 73 74 75 76 77 78 84 85 89 90 91 92 93 98 99 104 105 106 107 108 109 110 116 117 120 121 122 123 124 130 131 134 135 136 137 142 143 148 149 150 151 152 153 158 159 162 163 164 165 170 171 174 177 178 179 182 183 184 185 190 191 194 195 196 197 202 203 206 207 208 209 214 215 220 221 222 0
268 225 1 3 4 5 9 14 15 16 17 18 22 23 29 30 31 32 33 36 37 42 43 44 45 46 47 48 53 57 58 59 60 61 62 67 72 73 74 75 76 77 78 84 88 89 90 91 92 93 94 99 104 105 106 107 108 109 110 111 117 120 121 122 123 124 130 131 134 135 136 137 142 147 148 149 150 151 152 153 158 159 162 163 164 165 170 171 174 175 178 179 182 183 184 185 190 193 194 195 196 197 198 205 206 207 208 209 214 215 220 221 222 0
268 226 232 0
268 -232 -1 0
268 -232 -3 0
268 -232 -4 0
268 -232 -5 0
268 -232 -9 0
268 -232 -14 0
268 -232 -15 0
268 -232 -16 0
268 -232 -17 0
268 -232 -18 0
268 -232 -19 0
268 -232 -23 0
268 -232 -24 0
268 -232 -25 0
268 -232 -26 0
268 -232 -27 0
268 -232 -33 0
268 -232 -36 0
268 -232 -41 0
268 -232 -42 0
268 -232 -43 0
268 -232 -44 0
268 -232 -45 0
268 -232 -46 0
268 -232 -51 0
268 -232 -52 0
268 -232 -53 0
268 -232 -57 0
268 -232 -58 0
268 -232 -59 0
268 -232 -60 0
268 -232 -65 0
268 -232 -66 0
268 -232 -67 0
268 -232 -68 0
268 -232 -73 0
268 -232 -74 0
268 -232 -75 0
268 -232 -76 0
268 -232 -82 0
268 -232 -83 0
268 -232 -84 0
268 -232 -85 0
268 -232 -89 0
268 -232 -90 0
268 -232 -95 0
268 -232 -96 0
268 -232 -97 0
268 -232 -98 0
268 -232 -99 0
268 -232 -100 0
268 -232 -101 0
268 -232 -106 0
268 -232 -107 0
268 -232 -108 0
268 -232 -109 0
268 -232 -110 0
268 -232 -116 0
268 -232 -117 0
268 -232 -120 0
268 -232 -126 0
268 -232 -127 0
268 -232 -128 0
268 -232 -129 0
268 -232 -130 0
268 -232 -131 0
268 -232 -134 0
268 -232 -135 0
268 -232 -140 0
268 -232 -141 0
268 -232 -142 0
268 -232 -143 0
268 -232 -144 0
268 -232 -145 0
268 -232 -146 0
268 -232 -151 0
268 -232 -152 0
268 -232 -157 0
268 -232 -158 0
268 -232 -159 0
268 -232 -162 0
268 -232 -163 0
268 -232 -164 0
268 -232 -165 0
268 -232 -166 0
268 -232 -171 0
268 -232 -172 0
268 -232 -177 0
268 -232 -178 0
268 -232 -179 0
268 -232 -180 0
268 -232 -183 0
268 -232 -184 0
268 -232 -185 0
268 -232 -186 0
268 -232 -191 0
268 -232 -194 0
268 -232 -195 0
268 -232 -196 0
268 -232 -197 0
268 -232 -202 0
268 -232 -203 0
268 -232 -204 0
268 -232 -207 0
268 -232 -212 0
268 -232 -213 0
268 -232 -214 0
268 -232 -215 0
268 -232 -216 0
268 -232 -217 0
268 -232 -218 0
268 227 233 0
268 -233 -1 0
268 -233 -6 0
268 -233 -7 0
268 -233 -8 0
268 -233 -9 0
268 -233 -14 0
268 -233 -15 0
268 -233 -16 0
268 -233 -20 0
268 -233 -21 0
268 -233 -22 0
268 -233 -23 0
268 -233 -24 0
268 -233 -25 0
268 -233 -26 0
268 -233 -32 0
268 -233 -33 0
268 -233 -36 0
268 -233 -37 0
268 -233 -42 0
268 -233 -43 0
268 -233 -44 0
268 -233 -45 0
268 -233 -46 0
268 -233 -51 0
268 -233 -52 0
268 -233 -53 0
268 -233 -57 0
268 -233 -58 0
268 -233 -59 0
268 -233 -60 0
268 -233 -65 0
268 -233 -66 0
268 -233 -67 0
268 -233 -68 0
268 -233 -73 0
268 -233 -74 0
268 -233 -75 0
268 -233 -76 0
268 -233 -77 0
268 -233 -83 0
268 -233 -84 0
268 -233 -85 0
268 -233 -89 0
268 -233 -90 0
268 -233 -91 0
268 -233 -92 0
268 -233 -97 0
268 -233 -98 0
268 -233 -99 0
268 -233 -100 0
268 -233 -105 0
268 -233 -106 0
268 -233 -107 0
268 -233 -108 0
268 -233 -109 0
268 -233 -115 0
268 -233 -116 0
268 -233 -117 0
268 -233 -120 0
268 -233 -121 0
268 -233 -127 0
268 -233 -128 0
268 -233 -129 0
268 -233 -130 0
268 -233 -131 0
268 -233 -134 0
268 -233 -135 0
268 -233 -136 0
268 -233 -141 0
268 -233 -142 0
268 -233 -143 0
268 -233 -144 0
268 -233 -145 0
268 -233 -150 0
268 -233 -151 0
268 -233 -152 0
268 -233 -157 0
268 -233 -158 0
268 -233 -159 0
268 -233 -162 0
268 -233 -163 0
268 -233 -164 0
268 -233 -169 0
268 -233 -170 0
268 -233 -171 0
268 -233 -174 0
268 -233 -177 0
268 -233 -178 0
268 -233 -179 0
268 -233 -182 0
268 -233 -183 0
268 -233 -188 0
268 -233 -189 0
268 -233 -190 0
268 -233 -191 0
268 -233 -194 0
268 -233 -195 0
268 -233 -196 0
268 -233 -201 0
268 -233 -202 0
268 -233 -203 0
268 -233 -206 0
268 -233 -207 0
268 -233 -208 0
268 -233 -209 0
268 -233 -214 0
268 -233 -215 0
268 -233 -220 0
268 -233 -221 0
268 -233 -222 0
268 228 234 0
268 -234 -2 0
268 -234 -3 0
268 -234 -4 0
268 -234 -5 0
268 -234 -13 0
268 -234 -14 0
268 -234 -15 0
268 -234 -16 0
268 -234 -20 0
268 -234 -21 0
268 -234 -22 0
268 -234 -23 0
268 -234 -24 0
268 -234 -25 0
268 -234 -26 0
268 -234 -27 0
268 -234 -35 0
268 -234 -36 0
268 -234 -37 0
268 -234 -38 0
268 -234 -39 0
268 -234 -40 0
268 -234 -45 0
268 -234 -46 0
268 -234 -47 0
268 -234 -48 0
268 -234 -53 0
268 -234 -54 0
268 -234 -55 0
268 -234 -59 0
268 -234 -60 0
268 -234 -61 0
268 -234 -62 0
268 -234 -67 0
268 -234 -68 0
268 -234 -69 0
268 -234 -70 0
268 -234 -80 0
268 -234 -81 0
268 -234 -82 0
268 -234 -83 0
268 -234 -84 0
268 -234 -88 0
268 -234 -89 0
268 -234 -90 0
268 -234 -95 0
268 -234 -96 0
268 -234 -97 0
268 -234 -98 0
268 -234 -103 0
268 -234 -104 0
268 -234 -105 0
268 -234 -106 0
268 -234 -107 0
268 -234 -108 0
268 -234 -109 0
268 -234 -110 0
268 -234 -111 0
268 -234 -117 0
268 -234 -118 0
268 -234 -121 0
268 -234 -122 0
268 -234 -123 0
268 -234 -124 0
268 -234 -125 0
268 -234 -133 0
268 -234 -134 0
268 -234 -139 0
268 -234 -140 0
268 -234 -141 0
268 -234 -142 0
268 -234 -147 0
268 -234 -148 0
268 -234 -149 0
268 -234 -150 0
268 -234 -155 0
268 -234 -156 0
268 -234 -157 0
268 -234 -158 0
268 -234 -161 0
268 -234 -162 0
268 -234 -163 0
268 -234 -164 0
268 -234 -165 0
268 -234 -166 0
268 -234 -171 0
268 -234 -174 0
268 -234 -175 0
268 -234 -176 0
268 -234 -181 0
268 -234 -182 0
268 -234 -183 0
268 -234 -184 0
268 -234 -185 0
268 -234 -186 0
268 -234 -193 0
268 -234 -194 0
268 -234 -199 0
268 -234 -200 0
268 -234 -201 0
268 -234 -202 0
268 -234 -203 0
268 -234 -204 0
268 -234 -211 0
268 -234 -212 0
268 -234 -213 0
268 -234 -214 0
268 -234 -215 0
268 -234 -216 0
268 -234 -217 0
268 -234 -218 0
268 229 1 3 4 5 9 10 11 16 17 18 19 23 24 25 26 32 33 34 37 42 43 44 45 46 47 48 53 54 58 59 60 61 62 67 68 69 74 75 76 77 78 79 85 89 90 91 92 93 94 99 100 101 106 107 108 109 110 111 117 120 121 122 123 124 125 131 134 135 136 137 138 143 144 145 146 151 152 153 158 159 160 163 164 165 170 171 172 175 178 179 180 183 184 185 190 191 192 195 196 197 202 203 204 207 208 209 214 215 216 217 218 0
268 230 1 3 4 8 9 14 15 16 17 18 19 23 24 30 31 32 33 36 37 42 43 44 45 46 47 48 53 54 58 59 60 61 62 67 72 73 74 75 76 77 78 79 85 89 90 91 92 93 94 99 104 105 106 107 108 109 110 111 117 120 121 122 123 124 125 131 134 135 136 137 138 143 148 149 150 151 152 153 154 159 162 163 164 165 166 171 174 175 176 179 182 183 184 185 186 191 194 195 196 197 198 203 206 207 208 209 210 215 220 221 222 0
268 231 1 3 4 8 9 10 11 16 17 18 22 23 24 25 26 32 33 36 37 38 39 44 45 50 51 52 53 54 58 59 64 65 66 67 68 69 74 75 81 82 83 84 85 89 90 91 96 97 98 99 104 105 106 107 108 114 115 116 117 120 121 127 128 129 130 131 134 135 136 137 142 143 148 149 150 151 152 153 158 159 162 163 164 165 170 171 174 175 178 179 182 183 184 185 190 191 194 195 196 201 202 203 206 207 212 213 214 215 216 217 222 0
